c This is QMaxSAT 2017 based on 14.07
c This is Glucose 3.0
c This is MiniSat 2.2.0
c WARNING: for repeatability, setting FPU to use double precision
c card = mrwto, comp = 0, pmodel = 0, narr = 2, mct = 16, verb = 0
cr firstCPXsol 0 0 0
c top = 214379
c |  Number of variables:    248747                                           |
c |  Number of clauses:      5958004                                          |
c |  Weight of hard clauses: 214379                                           |
c |  Number of soft clauses: 480                                              |
c |  Number of unit soft clauses: 480                                         |
c |  Maximum Cardinality (by unit): 428756       (428756      )               |
c last restart ## conflicts  :  170 30775 
o 6157 | cpuTime 1.00892 s
c Sum of weights = 214378
c A number of soft clauses remained = 240
c MRWTO encoding for Pseudo-Boolean Constraints
c sizeMax=6157
c No.0 Divisor=9	generated by pow1
c No.1 Divisor=9	generated by pow1
c No.2 Divisor=9	generated by pow1
c No.3 Divisor=9	generated by pow1
c p0= 9	p1= 9	p2= 9	p3= 9	
c number of digits = 5
c linkingVar[0].size = 9, linkingVar[1].size = 9, linkingVar[2].size = 9, linkingVar[3].size = 9, linkingVar[4].size = 1, 
c Pseudo-Boolean Constraints: 6274 variables and 53596 clauses
c Sum of weights = 214378
c A number of soft clauses remained = 240
c MRWTO encoding for Pseudo-Boolean Constraints
c sizeMax=6157
c No.0 Divisor=9	generated by pow1
c No.1 Divisor=9	generated by pow1
c No.2 Divisor=9	generated by pow1
c No.3 Divisor=9	generated by pow1
c p0= 9	p1= 9	p2= 9	p3= 9	
c number of digits = 5
c linkingVar[0].size = 9, linkingVar[1].size = 9, linkingVar[2].size = 9, linkingVar[3].size = 9, linkingVar[4].size = 1, 
c Pseudo-Boolean Constraints: 6274 variables and 53596 clauses
c last restart ## conflicts  :  272 30788 
o 5930 | cpuTime 28.9972 s
c last restart ## conflicts  :  90 31105 
o 5908 | cpuTime 31.1535 s
c last restart ## conflicts  :  176 32140 
o 5639 | cpuTime 38.6449 s
c last restart ## conflicts  :  232 32227 
o 5509 | cpuTime 38.7293 s
c last restart ## conflicts  :  328 31277 
o 5444 | cpuTime 52.8283 s
c last restart ## conflicts  :  123 31897 
o 5352 | cpuTime 52.9535 s
c last restart ## conflicts  :  94 31445 
o 5265 | cpuTime 54.1556 s
c last restart ## conflicts  :  97 34883 
o 5260 | cpuTime 123.629 s
c last restart ## conflicts  :  168 32151 
o 5240 | cpuTime 243.832 s
c last restart ## conflicts  :  56 32298 
o 5149 | cpuTime 243.918 s
c last restart ## conflicts  :  272 32044 
o 5145 | cpuTime 491.505 s
c last restart ## conflicts  :  240 31934 
o 5144 | cpuTime 491.668 s
s OPTIMUM FOUND
cr positiVarArr: [ | 11@1(1->11) | 81@1(6->1) | 166@1(11->6) | 264@2(1->8) | 276@2(2->4) | 290@2(3->2) | 311@2(4->7) | 335@2(5->15) | 362@2(7->10) | 371@2(8->3) | 389@2(9->5) | 409@2(10->9) | 448@2(12->16) | 460@2(13->12) | 477@2(14->13) | 494@2(15->14) | 497@2(16->1) | ]
cr the 1-th chain: [ 1->11->6->1 ] (#non-depot=2) {#cumul.=3}
cr the 2-th chain: [ 1->8->3->2->4->7->10->9->5->15->14->13->12->16->1 ] (#non-depot=13) {#cumul.=16}
c Latest Answer = 0 by 13 loops
c restarts              : 6384
c conflicts             : 1634412        (1333 /sec)
c decisions             : 4243099        (0.00 % random) (3462 /sec)
c propagations          : 9120163939     (7440449 /sec)
c conflict literals     : 109104675      (42.69 % deleted)
c Memory used           : 670.00 MB
c CPU time              : 1225.75 s
